(set-info :smt-lib-version 2.6)
(set-logic LIA)
(set-info :source "|
Generated by the tool Ultimate Automizer [1,2] which implements
an automata theoretic approach [3] to software verification.

This SMT script belongs to a set of SMT scripts that was generated by
applying Ultimate Automizer to benchmarks [4] from the SV-COMP 2019 [5,6].
This script might _not_ contain all SMT commands that are used by
Ultimate Automizer. In order to satisfy the restrictions of
the SMT-COMP we have to drop e.g., the commands for getting
values (resp. models), unsatisfiable cores and interpolants.

2019-04-27, Matthias Heizmann (heizmann@informatik.uni-freiburg.de)

[1] https://ultimate.informatik.uni-freiburg.de/automizer/
[2] Matthias Heizmann, Yu-Fang Chen, Daniel Dietsch, Marius Greitschus,
     Jochen Hoenicke, Yong Li, Alexander Nutz, Betim Musa, Christian
     Schilling, Tanja Schindler, Andreas Podelski: Ultimate Automizer
     and the Search for Perfect Interpolants - (Competition Contribution).
     TACAS (2) 2018: 447-451
[3] Matthias Heizmann, Jochen Hoenicke, Andreas Podelski: Software Model
     Checking for People Who Love Automata. CAV 2013:36-52
[4] https://github.com/sosy-lab/sv-benchmarks
[5] Dirk Beyer: Automatic Verification of C and Java Programs: SV-COMP 2019.
     TACAS (3) 2019: 133-155
[6] https://sv-comp.sosy-lab.org/2019/
|")
(set-info :license "https://creativecommons.org/licenses/by/4.0/")
(set-info :category "industrial")
(set-info :status unknown)
(declare-fun ~a1~0 () Int)
(declare-fun |old(~a1~0)| () Int)
(declare-fun ~a10~0 () Int)
(declare-fun |old(~a10~0)| () Int)
(assert (or (and (<= |old(~a10~0)| 1) (<= (+ |old(~a1~0)| 13) 0)) (<= |old(~a10~0)| 0)))
(assert (< 0 ~a10~0))
(assert (<= |old(~a1~0)| ~a1~0))
(assert (<= |old(~a10~0)| ~a10~0))
(assert (or (< 1 ~a10~0) (< 0 (+ ~a1~0 13))))
(assert (<= 23 ~a1~0))
(assert (not (and (<= 1 ~a10~0) (exists ((v_~a1~0_455 Int)) (let ((.cse0 (* 5 (div v_~a1~0_455 5)))) (and (<= 0 (+ .cse0 5)) (<= 0 .cse0) (<= 0 v_~a1~0_455) (<= |old(~a1~0)| v_~a1~0_455) (<= (+ (div .cse0 5) 505228) ~a1~0)))))))
(assert (not (and (<= 1 ~a10~0) (exists ((v_~a1~0_455 Int)) (and (= 0 (mod v_~a1~0_455 5)) (<= |old(~a1~0)| v_~a1~0_455) (<= (+ (div (* 5 (div v_~a1~0_455 5)) 5) 505228) ~a1~0))))))
(assert (<= 1 ~a10~0))
(assert (exists ((v_~a1~0_455 Int)) (and (<= |old(~a1~0)| v_~a1~0_455) (< v_~a1~0_455 0) (not (= 0 (mod v_~a1~0_455 5))) (<= (+ (div (+ (* 5 (div v_~a1~0_455 5)) 5) 5) 505228) ~a1~0))))
(check-sat)
(exit)
